c FILE: queen7_7.col
c Translated from Stanford GraphBase File: queen7_7.sgb
c Stanford GraphBase ID: gunion(board(7,7,0,0,-1,0,0),board(7,7,0,0,-2,0,0),0,0)
p edge 49 952
e 2 1
e 3 1
e 3 2
e 4 1
e 4 2
e 4 3
e 5 1
e 5 2
e 5 3
e 5 4
e 6 1
e 6 2
e 6 3
e 6 4
e 6 5
e 7 1
e 7 2
e 7 3
e 7 4
e 7 5
e 7 6
e 8 1
e 8 2
e 9 1
e 9 2
e 9 3
e 9 8
e 10 2
e 10 3
e 10 4
e 10 8
e 10 9
e 11 3
e 11 4
e 11 5
e 11 8
e 11 9
e 11 10
e 12 4
e 12 5
e 12 6
e 12 8
e 12 9
e 12 10
e 12 11
e 13 5
e 13 6
e 13 7
e 13 8
e 13 9
e 13 10
e 13 11
e 13 12
e 14 6
e 14 7
e 14 8
e 14 9
e 14 10
e 14 11
e 14 12
e 14 13
e 15 1
e 15 3
e 15 8
e 15 9
e 16 2
e 16 4
e 16 8
e 16 9
e 16 10
e 16 15
e 17 1
e 17 3
e 17 5
e 17 9
e 17 10
e 17 11
e 17 15
e 17 16
e 18 2
e 18 4
e 18 6
e 18 10
e 18 11
e 18 12
e 18 15
e 18 16
e 18 17
e 19 3
e 19 5
e 19 7
e 19 11
e 19 12
e 19 13
e 19 15
e 19 16
e 19 17
e 19 18
e 20 4
e 20 6
e 20 12
e 20 13
e 20 14
e 20 15
e 20 16
e 20 17
e 20 18
e 20 19
e 21 5
e 21 7
e 21 13
e 21 14
e 21 15
e 21 16
e 21 17
e 21 18
e 21 19
e 21 20
e 22 1
e 22 4
e 22 8
e 22 10
e 22 15
e 22 16
e 23 2
e 23 5
e 23 9
e 23 11
e 23 15
e 23 16
e 23 17
e 23 22
e 24 3
e 24 6
e 24 8
e 24 10
e 24 12
e 24 16
e 24 17
e 24 18
e 24 22
e 24 23
e 25 1
e 25 4
e 25 7
e 25 9
e 25 11
e 25 13
e 25 17
e 25 18
e 25 19
e 25 22
e 25 23
e 25 24
e 26 2
e 26 5
e 26 10
e 26 12
e 26 14
e 26 18
e 26 19
e 26 20
e 26 22
e 26 23
e 26 24
e 26 25
e 27 3
e 27 6
e 27 11
e 27 13
e 27 19
e 27 20
e 27 21
e 27 22
e 27 23
e 27 24
e 27 25
e 27 26
e 28 4
e 28 7
e 28 12
e 28 14
e 28 20
e 28 21
e 28 22
e 28 23
e 28 24
e 28 25
e 28 26
e 28 27
e 29 1
e 29 5
e 29 8
e 29 11
e 29 15
e 29 17
e 29 22
e 29 23
e 30 2
e 30 6
e 30 9
e 30 12
e 30 16
e 30 18
e 30 22
e 30 23
e 30 24
e 30 29
e 31 3
e 31 7
e 31 10
e 31 13
e 31 15
e 31 17
e 31 19
e 31 23
e 31 24
e 31 25
e 31 29
e 31 30
e 32 4
e 32 8
e 32 11
e 32 14
e 32 16
e 32 18
e 32 20
e 32 24
e 32 25
e 32 26
e 32 29
e 32 30
e 32 31
e 33 1
e 33 5
e 33 9
e 33 12
e 33 17
e 33 19
e 33 21
e 33 25
e 33 26
e 33 27
e 33 29
e 33 30
e 33 31
e 33 32
e 34 2
e 34 6
e 34 10
e 34 13
e 34 18
e 34 20
e 34 26
e 34 27
e 34 28
e 34 29
e 34 30
e 34 31
e 34 32
e 34 33
e 35 3
e 35 7
e 35 11
e 35 14
e 35 19
e 35 21
e 35 27
e 35 28
e 35 29
e 35 30
e 35 31
e 35 32
e 35 33
e 35 34
e 36 1
e 36 6
e 36 8
e 36 12
e 36 15
e 36 18
e 36 22
e 36 24
e 36 29
e 36 30
e 37 2
e 37 7
e 37 9
e 37 13
e 37 16
e 37 19
e 37 23
e 37 25
e 37 29
e 37 30
e 37 31
e 37 36
e 38 3
e 38 10
e 38 14
e 38 17
e 38 20
e 38 22
e 38 24
e 38 26
e 38 30
e 38 31
e 38 32
e 38 36
e 38 37
e 39 4
e 39 11
e 39 15
e 39 18
e 39 21
e 39 23
e 39 25
e 39 27
e 39 31
e 39 32
e 39 33
e 39 36
e 39 37
e 39 38
e 40 5
e 40 8
e 40 12
e 40 16
e 40 19
e 40 24
e 40 26
e 40 28
e 40 32
e 40 33
e 40 34
e 40 36
e 40 37
e 40 38
e 40 39
e 41 1
e 41 6
e 41 9
e 41 13
e 41 17
e 41 20
e 41 25
e 41 27
e 41 33
e 41 34
e 41 35
e 41 36
e 41 37
e 41 38
e 41 39
e 41 40
e 42 2
e 42 7
e 42 10
e 42 14
e 42 18
e 42 21
e 42 26
e 42 28
e 42 34
e 42 35
e 42 36
e 42 37
e 42 38
e 42 39
e 42 40
e 42 41
e 43 1
e 43 7
e 43 8
e 43 13
e 43 15
e 43 19
e 43 22
e 43 25
e 43 29
e 43 31
e 43 36
e 43 37
e 44 2
e 44 9
e 44 14
e 44 16
e 44 20
e 44 23
e 44 26
e 44 30
e 44 32
e 44 36
e 44 37
e 44 38
e 44 43
e 45 3
e 45 10
e 45 17
e 45 21
e 45 24
e 45 27
e 45 29
e 45 31
e 45 33
e 45 37
e 45 38
e 45 39
e 45 43
e 45 44
e 46 4
e 46 11
e 46 18
e 46 22
e 46 25
e 46 28
e 46 30
e 46 32
e 46 34
e 46 38
e 46 39
e 46 40
e 46 43
e 46 44
e 46 45
e 47 5
e 47 12
e 47 15
e 47 19
e 47 23
e 47 26
e 47 31
e 47 33
e 47 35
e 47 39
e 47 40
e 47 41
e 47 43
e 47 44
e 47 45
e 47 46
e 48 6
e 48 8
e 48 13
e 48 16
e 48 20
e 48 24
e 48 27
e 48 32
e 48 34
e 48 40
e 48 41
e 48 42
e 48 43
e 48 44
e 48 45
e 48 46
e 48 47
e 49 1
e 49 7
e 49 9
e 49 14
e 49 17
e 49 21
e 49 25
e 49 28
e 49 33
e 49 35
e 49 41
e 49 42
e 49 43
e 49 44
e 49 45
e 49 46
e 49 47
e 49 48
